p cnf 38 110
a 12 30 0
e 1 2 3 4 5 6 7 8 9 10 11 13 14 15 16 17 18 19 20 21 22 23 24 25 26 27 28 29 31 32 33 34 35 36 37 38 0
-1 -2 -3 0
1 2 -3 0
-1 2 3 0
1 -2 3 0
-3 4 0
3 4 0
-7 5 0
-7 -6 0
-5 6 7 0
-8 -7 0
-8 3 0
7 -3 8 0
11 10 0
11 10 0
-10 -11 0
12 3 0
12 -11 0
-3 11 -12 0
13 -5 0
13 -12 0
5 12 -13 0
14 9 0
14 13 0
-9 -13 -14 0
-15 8 0
-15 14 0
-8 -14 15 0
6 7 -16 0
-6 -7 -16 0
6 -7 16 0
-6 7 16 0
-18 5 0
-18 -17 0
-5 17 18 0
3 18 -19 0
-3 -18 -19 0
3 -18 19 0
-3 18 19 0
20 -16 0
20 19 0
16 -19 -20 0
-21 -15 0
-21 20 0
15 -20 21 0
-22 -3 0
-22 3 0
-23 -10 -24 0
23 10 -24 0
-23 10 24 0
23 -10 24 0
-22 24 -25 0
22 -24 -25 0
-22 -24 25 0
22 24 25 0
-26 11 0
-26 -7 0
-11 7 26 0
27 1 0
27 -7 0
-1 7 -27 0
-12 -27 -28 0
12 27 -28 0
-12 27 28 0
12 -27 28 0
29 27 0
29 28 0
-27 -28 -29 0
1 29 -30 0
-1 -29 -30 0
1 -29 30 0
-1 29 30 0
26 -30 -31 0
-26 30 -31 0
26 30 31 0
-26 -30 31 0
-32 -25 0
-32 -31 0
25 31 32 0
21 32 -33 0
-21 -32 -33 0
21 -32 33 0
-21 32 33 0
-34 17 0
-34 -1 0
-17 1 34 0
-34 17 -35 0
34 -17 -35 0
-34 -17 35 0
34 17 35 0
36 2 0
36 35 0
-2 -35 -36 0
33 -36 -37 0
-33 36 -37 0
33 36 37 0
-33 -36 37 0
38 -4 0
38 -37 0
4 37 -38 0
10 19 -24 -22 23 8 6 -1 0
18 9 15 0
-32 22 -17 -21 0
26 7 -10 0
-15 -3 -17 -13 25 0
-25 37 -23 34 13 -11 0
-36 -30 -20 0
38 -31 -34 -13 21 0
-14 38 21 -2 -6 0
10 -31 -24 -6 0
38 0
